x = 17;
y = 12;
c = 54;
n = 25;

p = [59  69  22  75  47  27  12  57  36  72  53  21  28  74  78  22  96  36  94  49  72  46  95  49  81];
w = [7  3  9  10  10  8  7  1  10  1  7  10  7  10  4  1  6  10  7  4  2  4  9  6  1];
s = [3  7  3  3  7  9  5  4  10  1  11  4  10  1  3  12  6  7  8  1  3  7  6  5  7];
